2010-09-22 6
2010-09-23 8
2010-09-28 8
2010-09-29 8
2010-09-30 10
2010-09-30 9
2010-10-01 10
2010-10-01 11
2010-10-03 12
2010-10-04 12
2010-10-04 13
2010-10-04 14
2010-10-04 15
2010-10-04 32
2010-10-04 34
2010-10-04 35
2010-10-04 42
2010-10-04 43
2010-10-04 45
2010-10-04 48
2010-10-04 56
2010-10-04 62
2010-10-05 36
2010-10-05 62
2010-10-05 64
2010-10-05 69
2010-10-05 70
2010-10-05 72
2010-10-05 73
2010-10-05 74
2010-10-05 77
2010-10-05 78
2010-10-05 79
2010-10-05 80
2010-10-05 81
2010-10-05 82
2010-10-05 84
2010-10-05 85
2010-10-05 86
2010-10-06 86
2010-10-06 91
2010-10-25 92
2010-10-26 87
2010-10-26 90
2010-10-26 91
2010-10-26 92
2010-10-26 94
2010-10-26 95
2010-10-27 93
2010-10-27 94
2010-10-27 97
2010-10-27 98
2010-10-28 103
2010-10-28 105
2010-10-28 96
2010-10-28 98
2010-10-28 99
2010-10-31 105
2010-10-31 91
2010-11-01 106
2010-11-01 107
2010-11-02 107
2010-11-02 108
2010-11-02 109
2010-11-03 109
2010-11-03 110
2010-11-03 111
2010-11-03 113
2010-11-03 114
2010-11-03 115
2010-11-03 118
2010-11-03 119
2010-11-04 119
2010-11-04 120
2010-11-04 121
2010-11-04 123
2010-11-06 121
2010-11-06 123
2010-11-06 124
2010-11-06 125
2010-11-06 126
2010-11-06 138
2010-11-06 406
2010-11-07 411
2010-11-07 412
2010-11-07 413
2010-11-07 417
2010-11-08 413
2010-11-08 418
2010-11-08 419
2010-11-08 420
2010-11-08 421
2010-11-09 421
2010-11-09 436
2010-11-09 438
2010-11-09 439
2010-11-09 440
2010-11-09 441
2010-11-10 436
2010-11-10 438
2010-11-10 439
2010-11-10 440
2010-11-10 441
2010-11-10 442
2010-11-10 443
2010-11-10 445
2010-11-11 451
2010-11-11 455
2010-11-11 457
2010-11-11 461
2010-11-11 462
2010-11-11 463
2010-11-11 464
2010-11-11 466
2010-11-11 467
2010-11-14 199
2010-11-14 203
2010-11-14 208
2010-11-14 209
2010-11-14 210
2010-11-14 227
2010-11-15 227
2010-11-16 210
2010-11-16 227
2010-11-16 230
2010-11-16 232
2010-11-16 233
2010-11-16 234
2010-11-17 234
2010-11-17 235
2010-11-17 242
2010-11-17 248
2010-11-17 250
2010-11-17 253
2010-11-17 257
2010-11-17 259
2010-11-17 260
2010-11-18 243
2010-11-18 362
2010-11-19 368
2010-11-19 369
2010-11-19 408
2010-11-19 409
2010-11-19 432
2010-11-19 486
2010-11-19 487
2010-11-20 420
2010-11-20 421
2010-11-20 422
2010-11-20 424
2010-11-21 427
2010-11-21 442
2010-11-21 443
2010-11-21 445
2010-11-21 446
2010-11-22 454
2010-11-22 456
2010-11-23 458
2010-11-23 462
2010-11-23 779
2010-11-23 785
2010-11-24 791
2010-11-24 796
2010-11-26 800
2010-11-27 799
2010-11-27 803
2010-11-28 800
2010-11-28 803
2010-11-29 3
2010-11-29 805
2010-11-29 807
2010-11-30 807
2010-11-30 810
2010-11-30 814
2010-11-30 819
2010-12-01 816
2010-12-01 817
2010-12-01 822
2010-12-01 823
2010-12-01 824
2010-12-01 825
2010-12-01 826
2010-12-01 827
2010-12-01 828
2010-12-01 829
2010-12-01 830
2010-12-01 831
2010-12-01 832
2010-12-01 838
